100
30
11
22
5
32
19
32
31
29
32
8
6
23
29
3
7
19
16
4
12
11
11
31
21
29
3
31
13
5
6
4
32
31
6
16
7
17
1
24
5
16
15
15
8
9
7
32
17
9
7
8
2
1
6
6
31
4
6
32
7
20
31
14
5
16
31
30
14
32
31
9
6
8
2
14
7
9
5
14
12
32
2
1
31
10
10
25
20
17
5
5
32
23
7
3
7
7
16
32
20
10